50
    49    91    22    57    83    21    21    80   100    78    59    28    71    97    41    31    60    31    11    85    19    44    56    51    93    19     3    58    16    55    19    99    13    64    11    32    99    75    29    81    81    33    61    36    57    98    38    54    13    46
     5     4     4     6    10     6     7     5     5     1     8     1    10     3     8     7     2     2     7     4     5     9     9     3    10     3     2     7     6     6     3     5     8     5     2    10     9     2     3     1     9     4    10     9     6     2     1     2     3     1
   589   660  1104   308   562   471  1413   501   936    29   500  1225  1437   645  1509   314   817   960   355   863  2050   224  1697  1659    75   538  1041   977  1373  1911   713  1381  1439   405   170  1202   246  1669  1717  1395   259   600   808  1113  1363  1043  2033   472   932  1611
